(declare-fun temp812_1 () (_ BitVec 64))
(declare-fun temp812_2 () (_ BitVec 64))
(declare-fun temp812_3 () (_ BitVec 64))
(declare-fun ARGNAME_y_NAMEEND_DIMSIZE () (Array (_ BitVec 64) (_ BitVec 64)))
(declare-fun temp812_4 () (_ BitVec 64))
(declare-fun temp812_5 () (_ BitVec 64))
(declare-fun temp812_6 () (_ BitVec 64))
(declare-fun temp812_7 () (_ BitVec 64))
(declare-fun temp812_8 () (_ BitVec 64))
(declare-fun temp812_9 () (_ BitVec 64))
(declare-fun temp812_10 () (_ BitVec 64))
(declare-fun temp812_11 () (_ BitVec 64))
(declare-fun temp812_12 () (_ BitVec 64))
(declare-fun temp812_13 () (_ BitVec 64))
(declare-fun temp812_14 () (_ BitVec 64))
(declare-fun temp812_15 () (_ BitVec 64))
(declare-fun temp812_16 () (_ BitVec 64))
(declare-fun temp812_17 () (_ BitVec 64))
(declare-fun temp812_18 () (_ BitVec 64))
(declare-fun temp812_19 () (_ BitVec 64))
(declare-fun temp812_20 () (_ BitVec 64))
(declare-fun var131764 () (_ BitVec 64))
(declare-fun ARGNAME_y_NAMEEND_DIM () (_ BitVec 64))
(declare-fun temp812_21 () (_ BitVec 64))
(declare-fun var131768 () (_ BitVec 64))
(declare-fun temp812_22 () (_ BitVec 64))
(declare-fun temp812_23 () (_ BitVec 64))
(declare-fun var131771 () (_ BitVec 64))
(declare-fun k!0 () (_ BitVec 64))
(declare-fun k!1 () Bool)
(declare-fun temp812_24 () (_ BitVec 64))
(declare-fun ARGNAME_x_NAMEEND_DIM () (_ BitVec 64))
(declare-fun var131812 () (_ BitVec 64))
(declare-fun temp812_25 () (_ BitVec 64))
(declare-fun temp812_26 () (_ BitVec 64))
(declare-fun var131298 () (_ BitVec 64))
(declare-fun temp812_27 () (_ BitVec 64))
(declare-fun temp812_28 () (_ BitVec 64))
(declare-fun ARGNAME_x_NAMEEND_DIMSIZE () (Array (_ BitVec 64) (_ BitVec 64)))
(declare-fun temp812_29 () (_ BitVec 64))
(declare-fun temp812_30 () (_ BitVec 64))
(declare-fun temp812_31 () (_ BitVec 64))
(declare-fun temp812_32 () (_ BitVec 64))
(declare-fun temp812_33 () (_ BitVec 64))
(declare-fun temp812_34 () (_ BitVec 64))
(declare-fun temp812_35 () (_ BitVec 64))
(declare-fun temp812_36 () (_ BitVec 64))
(declare-fun temp812_37 () (_ BitVec 64))
(declare-fun temp812_38 () (_ BitVec 64))
(declare-fun temp812_39 () (_ BitVec 64))
(declare-fun temp812_40 () (_ BitVec 64))
(declare-fun temp812_41 () (_ BitVec 64))
(declare-fun temp812_42 () (_ BitVec 64))
(declare-fun temp812_43 () (_ BitVec 64))
(declare-fun temp812_44 () (_ BitVec 64))
(declare-fun temp812_45 () (_ BitVec 64))
(declare-fun temp812_46 () (_ BitVec 64))
(declare-fun temp812_47 () (_ BitVec 64))
(declare-fun var131815 () (_ BitVec 64))
(declare-fun temp812_48 () (_ BitVec 64))
(declare-fun temp812_49 () (_ BitVec 64))
(declare-fun temp812_50 () (_ BitVec 64))
(declare-fun var131816 () (_ BitVec 64))
(declare-fun var131817 () (_ BitVec 64))
(declare-fun temp812_51 () (_ BitVec 64))
(declare-fun temp812_53 () (_ BitVec 64))
(declare-fun temp812_52 () (_ BitVec 64))
(declare-fun temp812_54 () (_ BitVec 64))
(declare-fun var592370 () (_ BitVec 64))
(declare-fun var592372 () (_ BitVec 64))
(declare-fun var658108 () (_ BitVec 64))
(declare-fun temp812_55 () (_ BitVec 64))
(declare-fun temp812_56 () (_ BitVec 64))
(declare-fun temp812_57 () (_ BitVec 64))
(declare-fun temp812_58 () (_ BitVec 64))
(declare-fun var131845 () (_ BitVec 64))
(declare-fun temp812_60 () (_ BitVec 64))
(declare-fun temp812_59 () (_ BitVec 64))
(declare-fun temp812_62 () (_ BitVec 64))
(declare-fun temp812_61 () (_ BitVec 64))
(declare-fun temp812_63 () (_ BitVec 64))
(declare-fun var2229542 () (_ BitVec 64))
(declare-fun temp812_65 () (_ BitVec 64))
(declare-fun temp812_64 () (_ BitVec 64))
(declare-fun temp812_66 () (_ BitVec 64))
(declare-fun var2753830 () (_ BitVec 64))
(declare-fun temp812_67 () (_ BitVec 64))
(declare-fun var2753864 () (_ BitVec 64))
(declare-fun temp812_68 () (_ BitVec 64))
(assert (= temp812_1 #x0000000000000000))
(assert (= temp812_2 temp812_1))
(assert (= temp812_3 (select ARGNAME_y_NAMEEND_DIMSIZE temp812_2)))
(assert (= temp812_4 #x0000000000000001))
(assert (= temp812_5 temp812_4))
(assert (= temp812_6 (select ARGNAME_y_NAMEEND_DIMSIZE temp812_5)))
(assert (= temp812_7 #x0000000000000002))
(assert (= temp812_8 temp812_7))
(assert (= temp812_9 (select ARGNAME_y_NAMEEND_DIMSIZE temp812_8)))
(assert (= temp812_10 #x0000000000000003))
(assert (= temp812_11 temp812_10))
(assert (= temp812_12 (select ARGNAME_y_NAMEEND_DIMSIZE temp812_11)))
(assert (= temp812_13 #x0000000000000004))
(assert (= temp812_14 temp812_13))
(assert (= temp812_15 (select ARGNAME_y_NAMEEND_DIMSIZE temp812_14)))
(assert (= temp812_16 #x0000000000000005))
(assert (= temp812_17 temp812_16))
(assert (= temp812_18 (select ARGNAME_y_NAMEEND_DIMSIZE temp812_17)))
(assert (= temp812_19 #x0000000000000000))
(assert (= temp812_20
   (ite (bvslt var131764 temp812_19)
        (bvadd ARGNAME_y_NAMEEND_DIM var131764)
        var131764)))
(assert (= temp812_21 (select ARGNAME_y_NAMEEND_DIMSIZE temp812_20)))
(assert (= var131768 temp812_21))
(assert (bvslt (ite (bvslt var131764 temp812_19)
            (bvadd ARGNAME_y_NAMEEND_DIM var131764)
            var131764)
       ARGNAME_y_NAMEEND_DIM))
(assert (= temp812_22 #x0000000000000000))
(assert (= var131771
   (ite (= var131768 temp812_22) #x0000000000000001 #x0000000000000000)))
(assert (= temp812_23 #x0000000000000000))
(assert (= var131771 temp812_23))
(assert (= temp812_24 #x0000000000000001))
(assert (= var131812
   (ite (= ARGNAME_x_NAMEEND_DIM temp812_24)
        #x0000000000000001
        #x0000000000000000)))
(assert (= temp812_25 #x0000000000000001))
(assert (= var131812 temp812_25))
(assert (= temp812_26 #x0000000000000000))
(assert (= var131298 temp812_26))
(assert (= temp812_27 #x0000000000000000))
(assert (= temp812_28 temp812_27))
(assert (= temp812_29 (select ARGNAME_x_NAMEEND_DIMSIZE temp812_28)))
(assert (= temp812_30 #x0000000000000001))
(assert (= temp812_31 temp812_30))
(assert (= temp812_32 (select ARGNAME_x_NAMEEND_DIMSIZE temp812_31)))
(assert (= temp812_33 #x0000000000000002))
(assert (= temp812_34 temp812_33))
(assert (= temp812_35 (select ARGNAME_x_NAMEEND_DIMSIZE temp812_34)))
(assert (= temp812_36 #x0000000000000003))
(assert (= temp812_37 temp812_36))
(assert (= temp812_38 (select ARGNAME_x_NAMEEND_DIMSIZE temp812_37)))
(assert (= temp812_39 #x0000000000000004))
(assert (= temp812_40 temp812_39))
(assert (= temp812_41 (select ARGNAME_x_NAMEEND_DIMSIZE temp812_40)))
(assert (= temp812_42 #x0000000000000005))
(assert (= temp812_43 temp812_42))
(assert (= temp812_44 (select ARGNAME_x_NAMEEND_DIMSIZE temp812_43)))
(assert (= temp812_45 #x0000000000000000))
(assert (= temp812_46
   (ite (bvslt var131298 temp812_45)
        (bvadd ARGNAME_x_NAMEEND_DIM var131298)
        var131298)))
(assert (= temp812_47 (select ARGNAME_x_NAMEEND_DIMSIZE temp812_46)))
(assert (= var131815 temp812_47))
(assert (bvslt (ite (bvslt var131298 temp812_45)
            (bvadd ARGNAME_x_NAMEEND_DIM var131298)
            var131298)
       ARGNAME_x_NAMEEND_DIM))
(assert (= temp812_48 #x0000000000000000))
(assert (= temp812_49
   (ite (bvslt var131764 temp812_48)
        (bvadd ARGNAME_y_NAMEEND_DIM var131764)
        var131764)))
(assert (= temp812_50 (select ARGNAME_y_NAMEEND_DIMSIZE temp812_49)))
(assert (= var131816 temp812_50))
(assert (bvslt (ite (bvslt var131764 temp812_48)
            (bvadd ARGNAME_y_NAMEEND_DIM var131764)
            var131764)
       ARGNAME_y_NAMEEND_DIM))
(assert (= var131817
   (ite (= var131815 var131816) #x0000000000000001 #x0000000000000000)))
(assert (= temp812_51 #x0000000000000001))
(assert (= var131817 temp812_51))
(assert (= temp812_53 #x0000000000000001))
(assert (= temp812_52 temp812_53))
(assert (= temp812_54 #x0000000000000005))
(assert (= var592370 temp812_54))
(assert (= var592372 var592370))
(assert (= var658108 var592372))
(assert (= temp812_55 #x0000000000000000))
(assert (= var131298 temp812_55))
(assert (= temp812_56 #x0000000000000000))
(assert (= temp812_57
   (ite (bvslt var131298 temp812_56)
        (bvadd ARGNAME_x_NAMEEND_DIM var131298)
        var131298)))
(assert (= temp812_58 (select ARGNAME_x_NAMEEND_DIMSIZE temp812_57)))
(assert (= var131845 temp812_58))
(assert (bvslt (ite (bvslt var131298 temp812_56)
            (bvadd ARGNAME_x_NAMEEND_DIM var131298)
            var131298)
       ARGNAME_x_NAMEEND_DIM))
(assert (= temp812_60 #x0000000000000000))
(assert (= temp812_59 temp812_60))
(assert (= temp812_62 #xffffffffffffffff))
(assert (= temp812_61 temp812_62))
(assert (= temp812_63 #x0000000000000001))
(assert (= var2229542 temp812_63))
(assert (= temp812_65 #x0000000000000001))
(assert (= temp812_64 temp812_65))
(assert (= temp812_66 #x0000000000000001))
(assert (= var2753830 temp812_66))
(assert (= temp812_67 #x0000000000000000))
(assert (= var2753864 temp812_67))
(assert (= temp812_68 #x0000000000000000))
(assert (= var2753864 temp812_68))
(model-add temp812_1 () (_ BitVec 64) #x0000000000000000)
(model-add temp812_2 () (_ BitVec 64) #x0000000000000000)
(model-add temp812_3
           ()
           (_ BitVec 64)
           (select ARGNAME_y_NAMEEND_DIMSIZE #x0000000000000000))
(model-add temp812_4 () (_ BitVec 64) #x0000000000000001)
(model-add temp812_5 () (_ BitVec 64) #x0000000000000001)
(model-add temp812_6
           ()
           (_ BitVec 64)
           (select ARGNAME_y_NAMEEND_DIMSIZE #x0000000000000001))
(model-add temp812_7 () (_ BitVec 64) #x0000000000000002)
(model-add temp812_8 () (_ BitVec 64) #x0000000000000002)
(model-add temp812_9
           ()
           (_ BitVec 64)
           (select ARGNAME_y_NAMEEND_DIMSIZE #x0000000000000002))
(model-add temp812_10 () (_ BitVec 64) #x0000000000000003)
(model-add temp812_11 () (_ BitVec 64) #x0000000000000003)
(model-add temp812_12
           ()
           (_ BitVec 64)
           (select ARGNAME_y_NAMEEND_DIMSIZE #x0000000000000003))
(model-add temp812_13 () (_ BitVec 64) #x0000000000000004)
(model-add temp812_14 () (_ BitVec 64) #x0000000000000004)
(model-add temp812_15
           ()
           (_ BitVec 64)
           (select ARGNAME_y_NAMEEND_DIMSIZE #x0000000000000004))
(model-add temp812_16 () (_ BitVec 64) #x0000000000000005)
(model-add temp812_17 () (_ BitVec 64) #x0000000000000005)
(model-add temp812_18
           ()
           (_ BitVec 64)
           (select ARGNAME_y_NAMEEND_DIMSIZE #x0000000000000005))
(model-add temp812_19 () (_ BitVec 64) #x0000000000000000)
(model-add temp812_20
           ()
           (_ BitVec 64)
           (ite (bvsle #x0000000000000000 var131764)
                var131764
                (bvadd ARGNAME_y_NAMEEND_DIM var131764)))
(model-add temp812_21
           ()
           (_ BitVec 64)
           (select ARGNAME_y_NAMEEND_DIMSIZE
                   (ite (bvsle #x0000000000000000 var131764)
                        var131764
                        (bvadd ARGNAME_y_NAMEEND_DIM var131764))))
(model-add var131768
           ()
           (_ BitVec 64)
           (select ARGNAME_y_NAMEEND_DIMSIZE
                   (ite (bvsle #x0000000000000000 var131764)
                        var131764
                        (bvadd ARGNAME_y_NAMEEND_DIM var131764))))
(model-add temp812_22 () (_ BitVec 64) #x0000000000000000)
(model-add temp812_23 () (_ BitVec 64) #x0000000000000000)
(model-add var131771 () (_ BitVec 64) #x0000000000000000)
(model-del k!0)
(model-add ARGNAME_y_NAMEEND_DIMSIZE
           ()
           (Array (_ BitVec 64) (_ BitVec 64))
           ((as const (Array (_ BitVec 64) (_ BitVec 64))) k!0))
(model-del k!1)
(model-add k!0
           ()
           (_ BitVec 64)
           (ite k!1 #x0000000000000000 (bvnot #x0000000000000000)))




